Bi6 Se9
1.0
4.189766 0.000000 0.000000
-2.094883 3.628444 0.000000
0.000000 0.000000 30.411152
Bi Se
6 9
direct
0.333333 0.666667 0.064007 Bi
0.333333 0.666667 0.269327 Bi
0.000000 0.000000 0.397340 Bi
0.000000 0.000000 0.602660 Bi
0.666667 0.333333 0.730673 Bi
0.666667 0.333333 0.935993 Bi
0.000000 0.000000 0.000000 Se
0.666667 0.333333 0.115480 Se
0.000000 0.000000 0.217853 Se
0.666667 0.333333 0.333333 Se
0.333333 0.666667 0.448814 Se
0.666667 0.333333 0.551186 Se
0.333333 0.666667 0.666667 Se
0.000000 0.000000 0.782147 Se
0.333333 0.666667 0.884520 Se
